(set-logic QF_S)
(declare-fun var_0xINPUT_437353 () String)
(assert (and (= (len var_0xINPUT_437353) 0) (= (len var_0xINPUT_437353) 0) (= (len var_0xINPUT_437353) 0) (= (len var_0xINPUT_437353) 0) (not (= (len var_0xINPUT_437353) 0)) (= (len var_0xINPUT_437353) 0) (= (len var_0xINPUT_437353) 0) (= (len var_0xINPUT_437353) 0) (not (= (len var_0xINPUT_437353) 0)) (= (len var_0xINPUT_437353) 0) (= (len var_0xINPUT_437353) 0) (= (len var_0xINPUT_437353) 0) (not (= (len var_0xINPUT_437353) 0)) (= (len var_0xINPUT_437353) 0) (= (len var_0xINPUT_437353) 0) (= (len var_0xINPUT_437353) 0) (not (= (len var_0xINPUT_437353) 0)) (= (len var_0xINPUT_437353) 0) (= (len var_0xINPUT_437353) 0) (= (len var_0xINPUT_437353) 0) (not (= (len var_0xINPUT_437353) 0)) (= (len var_0xINPUT_437353) 0)))
(check-sat var_0xINPUT_437353)